NAME          
ROWS
 N  OBJ
 L  c1
COLUMNS
    MARKER    'MARKER'                 'INTORG'
    x[1]      c1        977
    x[1]      OBJ       -996
    x[2]      c1        265
    x[2]      OBJ       -206
    x[3]      c1        929
    x[3]      OBJ       -900
    x[4]      c1        862
    x[4]      OBJ       -821
    x[5]      c1        384
    x[5]      OBJ       -349
    x[6]      c1        87
    x[6]      OBJ       -176
    x[7]      c1        615
    x[7]      OBJ       -578
    x[8]      c1        620
    x[8]      OBJ       -592
    x[9]      c1        -38
    x[9]      OBJ       -44
    x[10]     c1        989
    x[10]     OBJ       -921
RHS
    rhs       c1        2845
RANGES
BOUNDS
 BV bounds    x[1]
 BV bounds    x[2]
 BV bounds    x[3]
 BV bounds    x[4]
 BV bounds    x[5]
 BV bounds    x[6]
 BV bounds    x[7]
 BV bounds    x[8]
 BV bounds    x[9]
 BV bounds    x[10]
ENDATA
